(set-logic QF_UF)
(declare-fun A1 () Bool)
(declare-fun A2 () Bool)
(declare-fun A3 () Bool)
(declare-fun A4 () Bool)
(declare-fun A5 () Bool)
(declare-fun A6 () Bool)
(declare-fun A7 () Bool)
(declare-fun A8 () Bool)
(declare-fun A9 () Bool)
(declare-fun A10 () Bool)
(declare-fun A12 () Bool)
(declare-fun A13 () Bool)
(declare-fun A14 () Bool)
(declare-fun A15 () Bool)
(declare-fun A16 () Bool)
(declare-fun A17 () Bool)
(declare-fun A18 () Bool)
(declare-fun A19 () Bool)
(declare-fun A20 () Bool)
(declare-fun A21 () Bool)
(declare-fun A22 () Bool)
(declare-fun A23 () Bool)
(declare-fun A24 () Bool)
(assert (let ((.def_0 (not A13))) (let ((.def_1 (or .def_0 A16))) (let ((.def_2 (not .def_1))) (let ((.def_3 (not A2))) (let ((.def_4 (or A4 .def_3))) (let ((.def_5 (and .def_4 .def_2))) (let ((.def_6 (= A19 A14))) (let ((.def_7 (not A21))) (let ((.def_8 (and A24 .def_7))) (let ((.def_9 (and .def_8 .def_6))) (let ((.def_10 (not .def_9))) (let ((.def_11 (or .def_10 .def_5))) (let ((.def_12 (not A14))) (let ((.def_13 (or .def_7 .def_12))) (let ((.def_14 (not .def_13))) (let ((.def_15 (not A3))) (let ((.def_16 (and A15 .def_15))) (let ((.def_17 (and .def_16 .def_14))) (let ((.def_18 (not .def_17))) (let ((.def_19 (not A12))) (let ((.def_20 (or .def_19 A14))) (let ((.def_21 (not A4))) (let ((.def_22 (not A9))) (let ((.def_23 (or .def_22 .def_21))) (let ((.def_24 (not .def_23))) (let ((.def_25 (or .def_24 .def_20))) (let ((.def_26 (not .def_25))) (let ((.def_27 (= .def_26 .def_18))) (let ((.def_28 (= .def_27 .def_11))) (let ((.def_29 (not A17))) (let ((.def_30 (or A15 .def_29))) (let ((.def_31 (not .def_30))) (let ((.def_32 (or A17 A14))) (let ((.def_33 (not .def_32))) (let ((.def_34 (or .def_33 .def_31))) (let ((.def_35 (not A23))) (let ((.def_36 (not A1))) (let ((.def_37 (and .def_36 .def_35))) (let ((.def_38 (not .def_37))) (let ((.def_39 (not A7))) (let ((.def_40 (or .def_39 A3))) (let ((.def_41 (not .def_40))) (let ((.def_42 (and .def_41 .def_38))) (let ((.def_43 (and .def_42 .def_34))) (let ((.def_44 (and .def_35 A18))) (let ((.def_45 (not .def_44))) (let ((.def_46 (or A15 .def_12))) (let ((.def_47 (or .def_46 .def_45))) (let ((.def_48 (not .def_47))) (let ((.def_49 (and .def_22 A18))) (let ((.def_50 (and .def_29 A10))) (let ((.def_51 (not .def_50))) (let ((.def_52 (and .def_51 .def_49))) (let ((.def_53 (or .def_52 .def_48))) (let ((.def_54 (= .def_53 .def_43))) (let ((.def_55 (or .def_54 .def_28))) (let ((.def_56 (or A10 .def_7))) (let ((.def_57 (not A6))) (let ((.def_58 (not A24))) (let ((.def_59 (or .def_58 .def_57))) (let ((.def_60 (not .def_59))) (let ((.def_61 (or .def_60 .def_56))) (let ((.def_62 (not .def_61))) (let ((.def_63 (not A15))) (let ((.def_64 (and .def_63 A7))) (let ((.def_65 (= A1 A5))) (let ((.def_66 (or .def_65 .def_64))) (let ((.def_67 (or .def_66 .def_62))) (let ((.def_68 (not .def_67))) (let ((.def_69 (or .def_12 .def_63))) (let ((.def_70 (not .def_69))) (let ((.def_71 (and .def_63 A20))) (let ((.def_72 (not .def_71))) (let ((.def_73 (or .def_72 .def_70))) (let ((.def_74 (or .def_39 A7))) (let ((.def_75 (not .def_74))) (let ((.def_76 (or A18 .def_57))) (let ((.def_77 (= .def_76 .def_75))) (let ((.def_78 (not .def_77))) (let ((.def_79 (or .def_78 .def_73))) (let ((.def_80 (not .def_79))) (let ((.def_81 (and .def_80 .def_68))) (let ((.def_82 (= A5 .def_36))) (let ((.def_83 (and A6 A18))) (let ((.def_84 (not .def_83))) (let ((.def_85 (and .def_84 .def_82))) (let ((.def_86 (and .def_29 A8))) (let ((.def_87 (not .def_86))) (let ((.def_88 (and .def_7 A24))) (let ((.def_89 (not .def_88))) (let ((.def_90 (or .def_89 .def_87))) (let ((.def_91 (and .def_90 .def_85))) (let ((.def_92 (or .def_29 .def_57))) (let ((.def_93 (not .def_92))) (let ((.def_94 (or .def_19 A5))) (let ((.def_95 (or .def_94 .def_93))) (let ((.def_96 (not .def_95))) (let ((.def_97 (= A3 A22))) (let ((.def_98 (or A23 .def_58))) (let ((.def_99 (and .def_98 .def_97))) (let ((.def_100 (and .def_99 .def_96))) (let ((.def_101 (and .def_100 .def_91))) (let ((.def_102 (= .def_101 .def_81))) (let ((.def_103 (not .def_102))) (let ((.def_104 (or .def_103 .def_55))) .def_104))))))))))))))))))))))))))))))))))))))))))))))))))))))))))))))))))))))))))))))))))))))))))))))))))))))))))
(check-sat)
